RT is False
Default write of storage_offers_DA.csv just to have a file (but constraint should be inactive)
Reading model...
...model read.
creating competitive generators file...
...competitive generators recorded.
Loading data...
.. day-ahead data with real-time VRE data read.
Compiling instance...
...instance created.
Creating Offer Mitigation (model will solve as dispatch if TRUE)...
NOTE: storage offers will not be mitigated
...storage offer mitigation file created
Converting model to MPEC...
...converted
NOTE: initial MIP solve with only storage competitive to get feasible solution
Solving...

Welcome to IBM(R) ILOG(R) CPLEX(R) Interactive Optimizer 12.9.0.0
  with Simplex, Mixed Integer & Barrier Optimizers
5725-A06 5725-A29 5724-Y48 5724-Y49 5724-Y54 5724-Y55 5655-Y21
Copyright IBM Corp. 1988, 2019.  All Rights Reserved.

Type 'help' for a list of available commands.
Type 'help' followed by a command name for more
information on commands.

CPLEX> Logfile 'cplex.log' closed.
Logfile 'C:\Users\llavin\Desktop\test919\logs\tmpkqgh8ynl.cplex.log' open.
CPLEX> New value for parallel optimization mode: -1
CPLEX> New value for mixed integer optimality gap tolerance: 0.01
CPLEX> New value for integrality tolerance: 1e-09
CPLEX> New value for feasibility tolerance: 0.01
CPLEX> New value for deterministic time limit in ticks: 100000
CPLEX> Problem 'C:\Users\llavin\Desktop\test919\logs\tmpisbsfa6y.pyomo.lp' read.
Read time = 0.23 sec. (13.86 ticks)
CPLEX> Problem name         : C:\Users\llavin\Desktop\test919\logs\tmpisbsfa6y.pyomo.lp
Objective sense      : Maximize
Variables            :   53321  [Nneg: 1,  Box: 21806,  Free: 4416,
                                 Binary: 27098]
Objective nonzeros   :    8980
Linear constraints   :  122164  [Less: 40983,  Greater: 58612,  Equal: 22569]
  Nonzeros           :  288505
  RHS nonzeros       :   66982

Variables            : Min LB: -5000.000        Max UB: 1000000.       
Objective nonzeros   : Min   : 0.1750000        Max   : 772.4167       
Linear constraints   :
  Nonzeros           : Min   : 0.1750000        Max   : 1000000.       
  RHS nonzeros       : Min   : 0.1750000        Max   : 1000000.       
CPLEX> CPXPARAM_Parallel                                -1
CPXPARAM_Simplex_Tolerances_Feasibility          0.01
CPXPARAM_DetTimeLimit                            100000
CPXPARAM_MIP_Tolerances_MIPGap                   0.01
CPXPARAM_MIP_Tolerances_Integrality              1.0000000000000001e-09
Tried aggregator 3 times.
MIP Presolve eliminated 88117 rows and 18973 columns.
MIP Presolve added 3378 rows and 0 columns.
MIP Presolve modified 24485 coefficients.
Aggregator did 12870 substitutions.
Reduced MIP has 24555 rows, 20922 columns, and 68793 nonzeros.
Reduced MIP has 8276 binaries, 0 generals, 0 SOSs, and 0 indicators.
Presolve time = 0.30 sec. (171.72 ticks)
Probing fixed 432 vars, tightened 2863 bounds.
Probing time = 1.25 sec. (903.23 ticks)
Tried aggregator 2 times.
MIP Presolve eliminated 963 rows and 865 columns.
MIP Presolve modified 2190 coefficients.
Aggregator did 42 substitutions.
Reduced MIP has 23550 rows, 20015 columns, and 65871 nonzeros.
Reduced MIP has 7844 binaries, 0 generals, 0 SOSs, and 0 indicators.
Presolve time = 0.09 sec. (67.58 ticks)
Probing time = 0.05 sec. (15.82 ticks)
Clique table members: 6371.
MIP emphasis: balance optimality and feasibility.
MIP search method: dynamic search.
Parallel mode: opportunistic, using up to 32 threads.
Root relaxation solution time = 0.39 sec. (487.44 ticks)

        Nodes                                         Cuts/
   Node  Left     Objective  IInf  Best Integer    Best Bound    ItCnt     Gap

      0     0      -17.5343   724                    -17.5343     6265         
      0    29    infeasible                          -49.3097     6576         
Elapsed time = 7.33 sec. (4592.27 ticks, tree = 0.02 MB, solutions = 0)
*   144+   62                        -1465.2494      -49.3097            96.63%
    579    46      -91.9802     1    -1465.2494      -49.3097    16742   96.63%
    918   380     -149.7390     1    -1465.2494      -88.9565    19516   93.93%
   1491   622     -302.1356     2    -1465.2494      -88.9565    20639   93.93%
   2130   775    -1030.3591     2    -1465.2494      -88.9565    21514   93.93%
   2737  1307     -137.6252     2    -1465.2494      -91.9802    24384   93.72%
   3427  1424     -302.1356     2    -1465.2494      -91.9802    25101   93.72%
   4056  2193     -108.7114     1    -1465.2494      -91.9802    29496   93.72%
   4594  2514        cutoff          -1465.2494     -101.4730    31372   93.07%
   7031  3783     -185.9766     2    -1465.2494     -108.8003    39283   92.57%
Elapsed time = 23.08 sec. (7537.63 ticks, tree = 25.99 MB, solutions = 3)
   8494  4641     -285.2361     1    -1465.2494     -112.2532    44759   92.34%
   8495  5325        cutoff          -1465.2494     -115.6829    53585   92.10%
*  9054   105      integral     0    -1069.6628     -115.6829    54582   89.19%
*  9235   287      integral     0    -1069.6628     -115.6829    55687   89.19%
  11946  1040     -217.4300     2    -1069.6628     -115.6829    61647   89.19%
  13252  3326     -217.4300     2    -1069.6628     -115.6829    77089   89.19%
  14644  3371     -228.1718     1    -1069.6628     -115.6829    77355   89.19%
  16591  3873     -963.9125     1    -1069.6628     -115.6829    80659   89.19%
  18069  4242        cutoff          -1069.6628     -115.6829    83246   89.19%
  19511  5277     -974.1466     6    -1069.6628     -115.6829    89561   89.19%
Elapsed time = 55.97 sec. (17642.38 ticks, tree = 34.47 MB, solutions = 6)
  20724  7050        cutoff          -1069.6628     -115.6829   100061   89.19%
  21774  7657        cutoff          -1069.6628     -115.6829   103453   89.19%
  22730  7569     -234.8564     1    -1069.6628     -115.6829   102969   89.19%
  23623  8710     -220.6002     2    -1069.6628     -115.6829   109341   89.19%
  24195  8610     -178.4334     2    -1069.6628     -115.6829   108817   89.19%
  24740  8650     -215.7467     1    -1069.6628     -115.6829   108708   89.19%
  25175  8640     -234.8564     1    -1069.6628     -115.6829   109043   89.19%
  25543  8763        cutoff          -1069.6628     -115.6829   109877   89.19%
  26134  9925     -234.8564     3    -1069.6628     -115.6829   116766   89.19%
  26697 10372     -195.1559     1    -1069.6628     -115.6829   119578   89.19%
Elapsed time = 82.64 sec. (27191.93 ticks, tree = 72.29 MB, solutions = 6)
  27296 10575        cutoff          -1069.6628     -115.6829   120648   89.19%
  27885 10046     -234.8564     1    -1069.6628     -115.6829   117595   89.19%
  28430 10701     -178.4334     2    -1069.6628     -115.6829   121413   89.19%
  28859 10341        cutoff          -1069.6628     -115.6829   119418   89.19%
  29301 10338     -234.8564     1    -1069.6628     -115.6829   119378   89.19%
  29595 10786     -234.8564     1    -1069.6628     -115.6829   122131   89.19%
  29880 10582        cutoff          -1069.6628     -115.6829   120717   89.19%
  30147 10619     -234.8564     2    -1069.6628     -115.6829   120922   89.19%
  30415 10774        cutoff          -1069.6628     -115.6829   122058   89.19%
  30688 12278        cutoff          -1069.6628     -115.6829   131028   89.19%
Elapsed time = 104.31 sec. (36746.06 ticks, tree = 86.77 MB, solutions = 6)
  30959 12497        cutoff          -1069.6628     -115.6829   133020   89.19%
  31206 12351        cutoff          -1069.6628     -115.6829   131673   89.19%
  31439 12373        cutoff          -1069.6628     -115.6829   131904   89.19%
  31672 12354     -234.8564     2    -1069.6628     -115.6829   131691   89.19%
  31885 12331     -234.8564     1    -1069.6628     -115.6829   131542   89.19%
  32095 12407        cutoff          -1069.6628     -115.6829   132219   89.19%
  32317 12326     -234.8564     1    -1069.6628     -115.6829   131475   89.19%
  32518 12423     -234.8564     1    -1069.6628     -115.6829   132331   89.19%
  32727 12449        cutoff          -1069.6628     -115.6829   132611   89.19%
  32923 12493        cutoff          -1069.6628     -115.6829   133012   89.19%
Elapsed time = 121.42 sec. (46317.71 ticks, tree = 88.22 MB, solutions = 6)
  33138 12511     -234.8564     4    -1069.6628     -115.6829   133133   89.19%
  33324 12598     -234.8564     1    -1069.6628     -115.6829   133761   89.19%
  33517 12609     -234.8564     1    -1069.6628     -115.6829   133874   89.19%
  33690 12669        cutoff          -1069.6628     -115.6829   134509   89.19%
  33869 12636        cutoff          -1069.6628     -115.6829   134179   89.19%
  34034 12923     -234.8564     2    -1069.6628     -115.6829   136685   89.19%
  34230 12735        cutoff          -1069.6628     -115.6829   135001   89.19%
  34394 12952        cutoff          -1069.6628     -115.6829   136934   89.19%
  34558 12677     -234.8564     3    -1069.6628     -115.6829   134615   89.19%
  34718 12848     -234.8564     2    -1069.6628     -115.6829   135970   89.19%
Elapsed time = 139.06 sec. (55944.36 ticks, tree = 90.80 MB, solutions = 6)
  34898 12850        cutoff          -1069.6628     -115.6829   136036   89.19%
  35116 12829     -234.8564     1    -1069.6628     -115.6829   135734   89.19%
  35267 12994        cutoff          -1069.6628     -115.6829   137442   89.19%
  35426 12970     -234.8564     5    -1069.6628     -115.6829   137126   89.19%
  35565 12834     -234.8564     1    -1069.6628     -115.6829   135774   89.19%
  35688 12930        cutoff          -1069.6628     -115.6829   136774   89.19%
  35814 12962     -234.8564     1    -1069.6628     -115.6829   137035   89.19%
  35946 12998        cutoff          -1069.6628     -115.6829   137461   89.19%
  36099 12926     -234.8564     1    -1069.6628     -115.6829   136718   89.19%
  36254 12998     -234.8564     2    -1069.6628     -115.6829   137490   89.19%
Elapsed time = 155.67 sec. (65590.74 ticks, tree = 91.86 MB, solutions = 6)
  36397 13381     -234.8564     2    -1069.6628     -115.6829   140724   89.19%
  36548 13021        cutoff          -1069.6628     -115.6829   137844   89.19%
  36686 12969     -234.8564     1    -1069.6628     -115.6829   137166   89.19%
  36830 13499     -220.6002     2    -1069.6628     -115.6829   141352   89.19%
  36986 13008        cutoff          -1069.6628     -115.6829   137681   89.19%
  37122 13000        cutoff          -1069.6628     -115.6829   137539   89.19%
  37254 13072     -234.8564     1    -1069.6628     -115.6829   138694   89.19%
  37478 13072     -234.8564     1    -1069.6628     -115.6829   138597   89.19%
  37728 13012     -234.8564     1    -1069.6628     -115.6829   137741   89.19%
  37983 13070        cutoff          -1069.6628     -115.6829   138432   89.19%
Elapsed time = 174.23 sec. (75198.93 ticks, tree = 92.40 MB, solutions = 6)
  38231 13070        cutoff          -1069.6628     -115.6829   138661   89.19%
  38428 13073     -178.4334     1    -1069.6628     -115.6829   138730   89.19%
  38563 13432     -234.8564     1    -1069.6628     -115.6829   140660   89.19%
  38704 13357     -234.8564     1    -1069.6628     -115.6829   140426   89.19%
  38852 13071        cutoff          -1069.6628     -115.6829   138682   89.19%
  38995 13072     -234.8564     1    -1069.6628     -115.6829   138691   89.19%
  39138 13072        cutoff          -1069.6628     -115.6829   138789   89.19%
  39260 13438     -234.8564     1    -1069.6628     -115.6829   140726   89.19%
  39421 13388        cutoff          -1069.6628     -115.6829   140693   89.19%
  39577 13373        cutoff          -1069.6628     -115.6829   140584   89.19%
Elapsed time = 181.72 sec. (84821.67 ticks, tree = 94.53 MB, solutions = 6)
  39708 13497     -234.8564     2    -1069.6628     -115.6829   141522   89.19%
  39847 13586     -234.8564     1    -1069.6628     -115.6829   142354   89.19%
  39981 13585        cutoff          -1069.6628     -115.6829   142356   89.19%
  40103 13623     -234.8564     1    -1069.6628     -115.6829   142996   89.19%
  40222 13592     -234.8564     2    -1069.6628     -115.6829   142595   89.19%
  40343 13623        cutoff          -1069.6628     -115.6829   143034   89.19%
  40451 13597     -234.8564     1    -1069.6628     -115.6829   142380   89.19%
  40552 13496     -178.4334     1    -1069.6628     -115.6829   141648   89.19%
  40650 13586     -234.8564     1    -1069.6628     -115.6829   142384   89.19%
  40978 13597        cutoff          -1069.6628     -115.6829   142702   89.19%
Elapsed time = 183.05 sec. (97367.58 ticks, tree = 95.93 MB, solutions = 6)

Cover cuts applied:  1
Implied bound cuts applied:  5
Flow cuts applied:  3
Mixed integer rounding cuts applied:  1
Gomory fractional cuts applied:  8

Root node processing (before b&c):
  Real time             =    6.22 sec. (4575.88 ticks)
Parallel b&c, 32 threads:
  Real time             =  178.81 sec. (96226.51 ticks)
  Sync time (average)   =    2.05 sec.
  Wait time (average)   =    0.26 sec.
                          ------------
Total (root+branch&cut) =  185.03 sec. (100802.39 ticks)

Solution pool: 6 solutions saved.

MIP - Deterministic time limit exceeded, integer feasible:  Objective = -1.0696627926e+03
Current MIP best bound = -1.1568291437e+02 (gap = 953.98, 89.19%)
Solution time =  185.08 sec.  Iterations = 144577  Nodes = 41124 (13772)
Deterministic time = 100802.54 ticks  (544.65 ticks/sec)

CPLEX> Incumbent solution written to file 'C:\Users\llavin\Desktop\test919\logs\tmpl580t_xr.cplex.sol'.
CPLEX> NOTE: no warmstart specified for MIP iteration, default behavior is true
NOTE: resolving with all competitive generators using storage-only solution to warmstart
Solving...

Welcome to IBM(R) ILOG(R) CPLEX(R) Interactive Optimizer 12.9.0.0
  with Simplex, Mixed Integer & Barrier Optimizers
5725-A06 5725-A29 5724-Y48 5724-Y49 5724-Y54 5724-Y55 5655-Y21
Copyright IBM Corp. 1988, 2019.  All Rights Reserved.

Type 'help' for a list of available commands.
Type 'help' followed by a command name for more
information on commands.

CPLEX> Logfile 'cplex.log' closed.
Logfile 'C:\Users\llavin\Desktop\test919\logs\tmp8bwz8lj1.cplex.log' open.
CPLEX> New value for parallel optimization mode: -1
CPLEX> New value for mixed integer optimality gap tolerance: 0.01
CPLEX> New value for integrality tolerance: 1e-09
CPLEX> New value for feasibility tolerance: 0.01
CPLEX> New value for deterministic time limit in ticks: 100000
CPLEX> Problem 'C:\Users\llavin\Desktop\test919\logs\tmpek3g2wf3.pyomo.lp' read.
Read time = 0.22 sec. (13.88 ticks)
CPLEX> MIP start file 'C:\Users\llavin\Desktop\test919\logs\tmpjhp5dx77.cplex.mst' read.
CPLEX> Problem name         : C:\Users\llavin\Desktop\test919\logs\tmpek3g2wf3.pyomo.lp
Objective sense      : Maximize
Variables            :   54041  [Nneg: 1,  Box: 22526,  Free: 4416,
                                 Binary: 27098]
Objective nonzeros   :    9700
Linear constraints   :  122164  [Less: 40983,  Greater: 58612,  Equal: 22569]
  Nonzeros           :  288505
  RHS nonzeros       :   66982

Variables            : Min LB: -5000.000        Max UB: 1000000.       
Objective nonzeros   : Min   : 0.1750000        Max   : 772.4167       
Linear constraints   :
  Nonzeros           : Min   : 0.1750000        Max   : 1000000.       
  RHS nonzeros       : Min   : 0.1750000        Max   : 1000000.       
CPLEX> CPXPARAM_Parallel                                -1
CPXPARAM_Simplex_Tolerances_Feasibility          0.01
CPXPARAM_DetTimeLimit                            100000
CPXPARAM_MIP_Tolerances_MIPGap                   0.01
CPXPARAM_MIP_Tolerances_Integrality              1.0000000000000001e-09
Warning:  No solution found from 1 MIP starts.
Retaining values of one MIP start for possible repair.
Tried aggregator 3 times.
MIP Presolve eliminated 88117 rows and 19693 columns.
MIP Presolve added 3378 rows and 0 columns.
MIP Presolve modified 24485 coefficients.
Aggregator did 12870 substitutions.
Reduced MIP has 24555 rows, 20922 columns, and 68793 nonzeros.
Reduced MIP has 8276 binaries, 0 generals, 0 SOSs, and 0 indicators.
Presolve time = 0.28 sec. (172.08 ticks)
Probing fixed 432 vars, tightened 2863 bounds.
Probing time = 1.27 sec. (903.23 ticks)
Tried aggregator 2 times.
MIP Presolve eliminated 963 rows and 865 columns.
MIP Presolve modified 2190 coefficients.
Aggregator did 42 substitutions.
Reduced MIP has 23550 rows, 20015 columns, and 65871 nonzeros.
Reduced MIP has 7844 binaries, 0 generals, 0 SOSs, and 0 indicators.
Presolve time = 0.09 sec. (67.58 ticks)
Probing time = 0.03 sec. (15.82 ticks)
Clique table members: 6371.
MIP emphasis: balance optimality and feasibility.
MIP search method: dynamic search.
Parallel mode: opportunistic, using up to 32 threads.
Root relaxation solution time = 0.38 sec. (487.44 ticks)

        Nodes                                         Cuts/
   Node  Left     Objective  IInf  Best Integer    Best Bound    ItCnt     Gap

      0     0      -17.5343   724                    -17.5343     6265         
Repair heuristic found nothing.
      0    25    infeasible                          -49.3097     6400         
Elapsed time = 7.58 sec. (4626.16 ticks, tree = 0.02 MB, solutions = 0)
    442    65    -6161.0021     1                    -49.3097     7854         
*   483   261      integral     0    -5671.9635      -49.3097    12273   99.13%
*   776   307      integral     0    -5532.1384      -49.3097    14479   99.11%
   1261   151     -120.0121     2    -5532.1384      -49.3097    19825   99.11%
   1806   687     -237.9388     1    -5532.1384      -49.3097    23152   99.11%
   2322   903     -195.1559     1    -5532.1384      -49.3097    24719   99.11%
   2923  1167     -158.9596     2    -5532.1384      -49.3097    26744   99.11%
   3480  1663     -104.1064     2    -5532.1384      -49.3097    29851   99.11%
   3908  1597     -132.1256     1    -5532.1384      -91.9802    29443   98.34%
   6117  1991     -950.2100     3    -5532.1384      -91.9802    32134   98.34%
Elapsed time = 21.66 sec. (7416.49 ticks, tree = 13.43 MB, solutions = 4)
   8241  2431     -496.8475     2    -5532.1384      -91.9802    34945   98.34%
*  8291  2383      integral     0    -5033.7104      -91.9802    34885   98.17%
  10345  3319     -233.6023     1    -5033.7104      -91.9802    40777   98.17%
  11614  4116     -325.5166     3    -5033.7104      -91.9802    47916   98.17%
  12227  4447    -1016.0418     3    -5033.7104      -91.9802    50381   98.17%
  12344  7564        cutoff          -5033.7104     -104.1064    80640   97.93%
  13273   285     -331.8881     6    -5033.7104     -104.1064    82602   97.93%
  14549  1006     -212.4043     5    -5033.7104     -104.1064    87272   97.93%
  16285  1778    -1767.5425     6    -5033.7104     -104.1064    93609   97.93%
  19875  4241     -165.3695     4    -5033.7104     -104.1064   109398   97.93%
  23436  5140     -946.4012     5    -5033.7104     -104.1064   114735   97.93%
Elapsed time = 64.77 sec. (19160.01 ticks, tree = 35.78 MB, solutions = 5)
  25066  9629     -286.7209     2    -5033.7104     -104.1064   142983   97.93%
  26076  9794     -286.7209     1    -5033.7104     -104.1064   144097   97.93%
  29456  9996     -399.8638     1    -5033.7104     -104.1064   145337   97.93%
  32377 10546     -176.7183     1    -5033.7104     -104.1064   149661   97.93%
  33022 15646    infeasible          -5033.7104     -104.1064   190984   97.93%
  35647  1990     -104.8442     2    -5033.7104     -104.1064   210849   97.93%
  40401  4055     -217.4300     3    -5033.7104     -104.1064   234349   97.93%
  44553  7655     -270.3816     1    -5033.7104     -104.1064   276532   97.93%
  49237  9600     -186.7946     2    -5033.7104     -116.3968   300945   97.69%
  54189 14832    -1522.7989     7    -5033.7104     -120.2555   373762   97.61%
Elapsed time = 105.61 sec. (30836.06 ticks, tree = 89.96 MB, solutions = 5)
  59332 16983        cutoff          -5033.7104     -176.7183   405966   96.49%
  64013 19904    -1522.7989     7    -5033.7104     -176.7183   447649   96.49%
  68867 22838     -302.1356     2    -5033.7104     -176.7183   490119   96.49%
  73835 28588     -195.1559     2    -5033.7104     -176.7183   573144   96.49%
  78497 30428     -217.4300     3    -5033.7104     -176.7183   599155   96.49%
  83755 32975    -1522.7989     8    -5033.7104     -176.7183   636904   96.49%
  88742 37518     -217.4300     4    -5033.7104     -176.7183   704540   96.49%
  93635 41373     -302.1356     2    -5033.7104     -176.7183   761200   96.49%
  98908 42453     -270.3816     1    -5033.7104     -177.4562   776969   96.47%
 103923 44971     -195.1559     1    -5033.7104     -177.4562   814249   96.47%
Elapsed time = 155.75 sec. (40374.23 ticks, tree = 282.12 MB, solutions = 5)
 109622 54826     -217.4300     4    -5033.7104     -177.4562   959077   96.47%
 115313 52433     -217.4300     4    -5033.7104     -181.7040   924834   96.39%
 120657 60937     -217.4300     4    -5033.7104     -181.7040  1033640   96.39%
 125868 60109     -217.4300     3    -5033.7104     -182.0727  1024428   96.38%
 131341 62120     -269.6437     2    -5033.7104     -187.7272  1046938   96.27%
 137303 65751     -302.1356     2    -5033.7104     -188.4299  1087021   96.26%
 143257 71579     -217.4300     3    -5033.7104     -188.4299  1160014   96.26%
 149076 77828     -217.4300     3    -5033.7104     -188.4299  1243366   96.26%
 154469 80452        cutoff          -5033.7104     -189.1678  1278295   96.24%
 159165 82944     -269.6437     2    -5033.7104     -195.1559  1311283   96.12%
Elapsed time = 203.50 sec. (49912.03 ticks, tree = 524.62 MB, solutions = 5)
 164591 86218    -1522.7989     8    -5033.7104     -195.1559  1353422   96.12%
 169811 90896     -217.4300     4    -5033.7104     -195.1559  1414915   96.12%
 175763 89044     -248.9078     3    -5033.7104     -195.1559  1390644   96.12%
 181712 94073     -269.6437     2    -5033.7104     -195.1559  1457065   96.12%
 187634 102714     -302.1356     1    -5033.7104     -195.1559  1579777   96.12%
 193462 100206    infeasible          -5033.7104     -195.1559  1543603   96.12%
 199072 111716        cutoff          -5033.7104     -195.1559  1709438   96.12%
 204316 106899     -217.4300     2    -5033.7104     -195.1559  1640180   96.12%
 209524 120802    infeasible          -5033.7104     -195.1559  1837912   96.12%
 215009 115691     -217.4300     3    -5033.7104     -195.1559  1766777   96.12%
Elapsed time = 253.88 sec. (59450.34 ticks, tree = 730.72 MB, solutions = 5)
 220453 125270     -217.4300     3    -5033.7104     -195.1559  1897935   96.12%
 225774 126838     -218.1678     2    -5033.7104     -195.1559  1919578   96.12%
 230859 125747        cutoff          -5033.7104     -195.1559  1904665   96.12%
 235722 128655        cutoff          -5033.7104     -195.1559  1943718   96.12%
 240464 132040    -1547.3560     7    -5033.7104     -195.1559  1989920   96.12%
 245401 135069     -270.3816     1    -5033.7104     -195.1559  2031760   96.12%
 249638 137066     -270.3816     1    -5033.7104     -195.1559  2059780   96.12%
 254702 142690     -217.4300     4    -5033.7104     -195.1559  2144029   96.12%
 259802 142786     -217.4300     3    -5033.7104     -195.1559  2144910   96.12%
 265007 149089        cutoff          -5033.7104     -195.8937  2248152   96.11%
Elapsed time = 301.11 sec. (68989.58 ticks, tree = 949.32 MB, solutions = 5)
 270204 147979    -1546.6181     6    -5033.7104     -195.8937  2228681   96.11%
 275396 148607     -302.1356     2    -5033.7104     -195.8937  2239270   96.11%
 280668 153669     -302.1356     1    -5033.7104     -196.5192  2329429   96.10%
 285984 164440     -251.6290     3    -5033.7104     -202.5786  2532013   95.98%
 291353 164043    -1522.7989     7    -5033.7104     -208.1505  2523986   95.86%
 297059 170584    -1522.7989     7    -5033.7104     -217.4300  2649225   95.68%
 303098 168494        cutoff          -5033.7104     -217.4300  2609459   95.68%
 308787 177631    -1587.0647     8    -5033.7104     -217.4300  2779525   95.68%
 314492 175200     -302.1356     2    -5033.7104     -217.4300  2734649   95.68%
 320602 186348    infeasible          -5033.7104     -217.4300  2939135   95.68%
Elapsed time = 349.41 sec. (78528.24 ticks, tree = 1191.52 MB, solutions = 5)
 326596 174090        cutoff          -5033.7104     -217.4300  2714313   95.68%
 332286 178923     -302.1356     2    -5033.7104     -217.4300  2803395   95.68%
 337296 192338     -269.6437     2    -5033.7104     -217.4300  3046895   95.68%
 342177 196479     -251.6290     4    -5033.7104     -217.4300  3121525   95.68%
 347429 186993     -302.1356     2    -5033.7104     -217.4300  2950766   95.68%
 352170 199121     -269.6437     1    -5033.7104     -217.4300  3168397   95.68%
 357126 205173    -1546.6181     6    -5033.7104     -217.4300  3276927   95.68%
 362745 201135    -1570.4373     6    -5033.7104     -217.4300  3204232   95.68%
 368499 201246    -1587.0647     8    -5033.7104     -217.4300  3206256   95.68%
 374590 201367     -302.1356     2    -5033.7104     -217.4300  3208151   95.68%
Elapsed time = 395.06 sec. (88066.19 ticks, tree = 1290.75 MB, solutions = 5)
 380717 208831     -251.6290     4    -5033.7104     -217.4300  3344067   95.68%
 386838 211437     -269.6437     2    -5033.7104     -217.4300  3392752   95.68%
 392915 223653     -217.4300     3    -5033.7104     -217.4300  3621269   95.68%
 398945 212565        cutoff          -5033.7104     -217.4300  3413870   95.68%
 404882 216338     -302.1356     2    -5033.7104     -217.4300  3484158   95.68%
 410630 221198     -251.6290     4    -5033.7104     -217.4300  3575339   95.68%
 416090 222534     -302.1356     1    -5033.7104     -217.4300  3600107   95.68%
 421279 239713    -1522.7989     8    -5033.7104     -217.4300  3918737   95.68%
 426111 229914    -1522.7989     8    -5033.7104     -217.4300  3738190   95.68%

Cover cuts applied:  2
Implied bound cuts applied:  9
Flow cuts applied:  5
Mixed integer rounding cuts applied:  1
Zero-half cuts applied:  2
Gomory fractional cuts applied:  5

Root node processing (before b&c):
  Real time             =    6.48 sec. (4599.51 ticks)
Parallel b&c, 32 threads:
  Real time             =  427.70 sec. (95412.32 ticks)
  Sync time (average)   =    2.50 sec.
  Wait time (average)   =    0.42 sec.
                          ------------
Total (root+branch&cut) =  434.19 sec. (100011.83 ticks)

Solution pool: 5 solutions saved.

MIP - Deterministic time limit exceeded, integer feasible:  Objective = -5.0337104000e+03
Current MIP best bound = -2.1742996702e+02 (gap = 4816.28, 95.68%)
Solution time =  434.20 sec.  Iterations = 4135273  Nodes = 436144 (251545)
Deterministic time = 100011.98 ticks  (230.33 ticks/sec)

CPLEX> Incumbent solution written to file 'C:\Users\llavin\Desktop\test919\logs\tmpxvsa8y5x.cplex.sol'.
CPLEX> Exporting results... 
